8 7 2.6
3 3 1 247 2 223 3 100 3 4 140 2 130 7 123 3 4 150 5 160 7 200 
3 2 1 214 3 150 2 3 87 2 66 3 5 178 6 95 7 150 
3 2 1 87 2 62 3 7 145 3 180 4 105 3 4 190 5 100 6 153 
3 2 1 87 2 65 2 3 250 5 173 2 4 145 6 136 
3 3 2 123 3 145 1 128 3 7 86 4 65 5 47 3 5 110 6 85 2 100 
3 3 2 145 3 320 4 154 3 4 150 3 123 5 192 3 5 120 6 240 7 180 
3 2 3 145 2 157 2 3 124 5 168 3 5 145 6 165 7 178 
3 2 4 245 3 257 2 6 224 5 268 3 5 145 6 165 7 178 
2 47 46 114 19 201 279 
2 60 28 180 67 269 355 
2 183 106 292 175 462 732 
3 58 30 141 16 226 287 71 389 466 
3 140 34 201 44 277 428 88 542 633 
2 32 81 160 102 298 425 
2 63 69 138 47 262 359 
